sing20170125.12
TTAA 75121 48698
99009 27233 07004 00103 26636 02508 92788 21627 02520
85519 17833 04017 70157 09233 17504 50587 05900 28509
40759 15539 10014 30970 29936 11023 25097 40725 10030
20245 53526 11531 15424 68945 10548 10656 75964 09037
88110 83156 11572
77116 11573 421//=
TTCC 75123 48698
70861 78362 27517 50059 68572 27517
88999
77999=
TTDD 7512/ 48698
11999 75964 22806 80560 33791 79762 44782 75764 55701
78362 66628 76165 77608 69371 88583 66175 99462 70970
11360 59980 22304 60178
21212 11904 10514 22887 10510 33856 07004 44801 01510
55787 02513 66762 01510 77731 28010 88703 27518 99629
35510 11606 15502 22594 26010 33569 27024 44502 27517
55482 29022 66399 32020 77340 27031 88315 25533 99304
25526=
